c Lingeling SAT Solver
c 
c Version ala b02aa1a04343558c4252b5f4a723be021964f652
c 
c Copyright (C) 2010-2012 Armin Biere JKU Linz Austria.
c All rights reserved.
c 
c released Sat Oct 13 14:05:26 CEST 2012
c compiled Sat Feb 16 02:48:12 EST 2013
c 
c gcc (Debian 4.4.5-8) 4.4.5
c -Wall -O3 -DNLGLOG -DNDEBUG -DNCHKSOL -DNLGLPICOSAT 
c Linux greencar2 2.6.32-5-amd64 x86_64
c 
c reading input file p06.cnf
c no embedded options
c found 'p cnf 68525 204254' header
c read 68525 variables, 204254 clauses, 422441 literals in 0.0 seconds
c
c feature vars 68525
c feature lits.total 422441
c feature lits.pos 227225
c feature lits.neg 195216
c feature clauses.total 204254
c feature clauses.unit 27219
c feature clauses.bin 144183
c feature clauses.trn 32152
c feature clauses.lrg 700
c feature cog.val.min 1
c feature cog.val.avg 30515
c feature cog.val.max 64720
c feature cog.var.min 1
c feature cog.var.avg 34263
c feature cog.var.max 68524
c
c
c --abstime=0
c --acts=2
c --actavgmax=120
c --actstdmin=20
c --actstdmax=80
c --agile=23
c --bias=2
c --block=1
c --blkrtc=0
c --blkclslim=2000
c --blkocclim=2000
c --blkmaxeff=2147483647
c --blkmineff=10000000
c --blkreleff=20
c --card=0
c --cce=3
c --ccemaxeff=100000000
c --ccemineff=5000000
c --ccereleff=3
c --check=0
c --cgrclsr=1
c --cgrmaxority=20
c --cgrmaxeff=8000000
c --cgrmineff=200000
c --cgreleff=1
c --cgrexteq=1
c --cgrextand=1
c --cgrextunits=1
c --cgrextite=1
c --cgrextxor=1
c --cliff=1
c --cliffreleff=8
c --cliffmineff=10000000
c --cliffmaxeff=100000000
c --compact=0
c --decompose=1
c --defragint=10000000
c --defragfree=50
c --elim=1
c --elmrtc=0
c --elmblk=1
c --elmclslim=1000
c --elmocclim=1000
c --elmaxeff=100000000
c --elmineff=5000000
c --elmreleff=10
c --sleeponabort=0
c --exitonabort=0
c --flipping=1
c --flipint=2
c --flipdur=50
c --fliptop=1
c --force=0
c --gauss=1
c --gaussextrall=1
c --gaussmaxor=20
c --gaussexptrn=1
c --gaussmaxeff=50000000
c --gaussmineff=2000000
c --gaussreleff=2
c --gluescale=2
c --gluekeep=0
c --inprocessing=1
c --cintinc=10000
c --irrlim=20
c --lift=1
c --lftmaxeff=20000000
c --lftmineff=500000
c --lftreleff=6
c --lhbr=1
c --lkhd=1
c --clim=-1
c --mocint=1000
c --move=2
c --log=-1
c --otfs=1
c --phase=0
c --phaseneginit=0
c --plain=0
c --probe=1
c --prbasicmaxeff=100000000
c --prbasicmineff=1000000
c --prbasicreleff=10
c --prbasic=1
c --prbasicroundlim=9
c --queuemergelim=10000
c --queuefactor=833
c --queueinc=20
c --rmincpen=4
c --seed=0
c --smallirr=90
c --smallve=1
c --smallvevars=12
c --randec=1
c --randecint=1000
c --redfixed=0
c --redlbound=0
c --redlexpfac=10
c --redldoutfac=0
c --redloutinc=10000
c --redlinit=1000
c --redlinc=1000
c --redinoutinc=100
c --redlmininc=10
c --redlmaxinc=200
c --redlminrel=10
c --redlmaxrel=300
c --redlminabs=500
c --redlmaxabs=1000000
c --reduce=1
c --restart=2
c --restartint=5
c --rstinoutinc=110
c --simplify=1
c --simpdelay=100
c --simpen=4
c --sizepen=1000000
c --sizemaxpen=3
c --sortlits=0
c --syncint=111111
c --termint=122222
c --ternres=1
c --ternresrtc=0
c --trnrmineff=4000000
c --trnrmaxeff=40000000
c --trnreleff=10
c --transred=1
c --trdmineff=100000
c --trdmaxeff=2000000
c --trdreleff=10
c --unhide=1
c --unhdextstamp=1
c --unhdhbr=0
c --unhdmaxeff=20000000
c --unhdmineff=1000000
c --unhdreleff=4
c --unhdlnpr=3
c --unhdroundlim=5
c --verbose=1
c --witness=1
c [limits] no conflict limit
c [limits] simplification delayed by 100 to 100 conflicts
c 
c  seconds         irredundant          redundant clauses agility   height
c          variables clauses conflicts large binary ternary    glue         MB
c 
c *    0.0   33552   134515         0       0      0     0  30  0.0   0.0   14
c [cut-width] 44180, max 76761, min4 18800 at 75%, min10 14853 at 84%
c [decision-order] bias 1, old 1
c [queue-schedule-all-variables]
c s    0.0   33484   134515         0       0      0     0  30  0.0   0.0   14
c [simplification-1] limit hit at 100 conflicts
c [simplification-1] simplification penalty of 4
c [ternres-1] limit 4000000 with penalty 0 = 0 + 0
c [ternres-1] all 33484 free variables schedulable
c [ternres-1] 0 ternary resolvents (0 bin, 0 trn)
c [ternres-1] fully completed ternary resolution
c [gauss-1] limit 2000000 penalty 0 = 0 + 0
c [gauss-1] extracted 126566 xors of average arity 2.0
c [gauss-1] connected 253138 occurrences of 33384 variables (average 7.6)
c [gauss-1] limit 2000000 penalty 0 = 0 + 0
c [gauss-1] exported 0 unary, 0 binary and 0 ternary equations
c G    0.3   33484   124041       100      99      0     1  24  5.0  39.0    9
c d    0.3   14436    60761       100      99      0     1  24  5.0  39.0    7
c [basicprobe-1] limit 1000000 penalty 0 = 0 + 0
c [basicprobe-1-0] 1542 probes remain 11% after last round
c [basicprobe-1-0] 77 units = 77 failed (100%) + 0 lifted (0%)
c [basicprobe-1-0] removed 160 variables, found 2046 hbrs
c p    0.4   14276    60761       100      99   2043     1  24  5.0  39.0    8
c [cgrclsr-1] limit 200000 penalty 0 = 0 + 0
c [cgrclsr-1] all 14276 free variables schedulable
c [cgrclsr-1] fully completed congruence closure
c [cgrclsr-1] removed 155 variables
c C    0.4   14121    59400       100      98   1907     1  24  5.0  39.0    7
c [lift-1] limit 500000 with penalty 0 = 0 + 0
c [lift-1] using 14121 probes 100%
c [lift-1] 14005 variables remain 99% (104 retained)
c [lift-1] removed 12 variables
c ^    0.5   14109    59320       100      98   2027     1  24  5.0  39.0    7
c [cliff-1] limit of 10000000 steps penalty 0 = 0 + 0
c [cliff-1] failed 77, lifted 87
c K    0.8   13824    59320       100      98   6801     1  24  5.0  39.0    8
c [unhide-1] limit 1000000 with penalty 0 = 0 + 0
c [unhide-1-4] 0 units, 4 failed, 7042 tauts, 0 hbrs, 114 literals
c u    0.9   13819    53018       100      95   3957     4  24  5.0  39.0    8
c [transred-1] limit 100000 with penalty 0 = 0 + 0
c t    0.9   13819    53007       100      95   3945     4  24  5.0  39.0    8
c [block-1] scheduling all variables this time
c [block-1] scheduled 13819 variables 100%
c [block-1] limit of 10000000 steps penalty 0 = 0 + 0
c [block-1] fully completed blocked clause elimination
c [block-1] transition to [ all 0 rem 0 ] state
c [block-1] eliminated 1910 blocked clauses
c k    1.0   13819    51097       100      95   4082  1777  24  5.0  39.0    7
c [cce-1] scheduling all variables this time
c [cce-1] limit of 10000000 steps penalty 0 = 0 + 0
c [cce-1] incomplete covered clause elimination 9498 not tried 69%
c [cce-1] transition to [ all 1 rem 1 ] state
c [cce-1] eliminated 1252 covered clauses
c E    1.3   13713    49845       100      95   8235  1752  24  5.0  39.0    7
c [elim-1] scheduling all variables this time
c [elim-1] scheduled 13713 variables 100%
c [elim-1] limit of 5000000 steps penalty 0 = 0 + 0
c [elim-1] incomplete variable elimination 2794 not tried 20%
c [elim-1] transition to [ all 1 rem 1 ] state
c [elim-1] eliminated 4029 = 29% variables out of 13713
c e    2.2    9684    46542       100      57   1377   206  24  5.0  39.0    7
c [phase-1] phase bias: 274 positive 17%, 1356 negative 83%
c [simplification-1] removed 23800 variables 71%
c [simplification-1] limit increments divided by 36
c [simplification-1] arithmetic increase of conflict limit interval by 277
c [simplification-1] new irredundant limit 614932
c [simplification-1] new conflict limit 377
c [simplification-1] simplification penalty reduced to 3
c R    2.2    9684    46542       166     115   1380   209  22  4.7  33.6    8
c [simplification-2] limit hit at 377 conflicts
c [simplification-2] simplification penalty of 3
c [ternres-2] limit 2000000 with penalty 1 = 1 + 0
c [ternres-2] all 9684 free variables schedulable
c [ternres-2] 397 ternary resolvents (5 bin, 392 trn)
c [ternres-2] fully completed ternary resolution
c T    2.2    9684    46542       377     282   1399   629  19  4.7  39.7    8
c [gauss-2] limit 1000000 penalty 1 = 1 + 0
c [gauss-2] extracted 567 xors of average arity 3.0
c [gauss-2] connected 1699 occurrences of 574 variables (average 3.0)
c [gauss-2] limit 1000000 penalty 1 = 1 + 0
c [gauss-2] fully completed
c [gauss-2] exported 0 unary, 0 binary and 0 ternary equations
c G    2.2    9684    46542       377     282   1399   629  19  4.7  39.7    7
c d    2.3    9683    46540       377     282   1399   629  19  4.7  39.7    7
c [basicprobe-2] limit 1000000 penalty 0 = 0 + 0
c [basicprobe-2-0] 873 probes remain 9% after last round
c [basicprobe-2-0] 52 units = 52 failed (100%) + 0 lifted (0%)
c [basicprobe-2-0] removed 52 variables, found 314 hbrs
c p    2.3    9631    46540       377     282   1713   624  19  4.7  39.7    8
c [cgrclsr-2] limit 200000 penalty 0 = 0 + 0
c [cgrclsr-2] all 9631 free variables schedulable
c [cgrclsr-2] fully completed congruence closure
c [cgrclsr-2] removed 25 variables
c C    2.3    9606    45845       377     282   1657   616  19  4.7  39.7    7
c [lift-2] limit 500000 with penalty 0 = 0 + 0
c [lift-2] using 9530 probes 99%
c [lift-2] 9402 variables remain 98% (203 retained)
c [lift-2] removed 1 variables
c ^    2.4    9605    45843       377     282   1675   616  19  4.7  39.7    7
c [cliff-2] limit of 10000000 steps penalty 0 = 0 + 0
c [cliff-2] failed 28, lifted 4
c K    2.8    9569    45843       377     282   2100   613  19  4.7  39.7    8
c [unhide-2] limit 1000000 with penalty 0 = 0 + 0
c [unhide-2-9] 0 units, 0 failed, 1020 tauts, 0 hbrs, 654 literals
c u    2.9    9569    44666       377     276   1796   599  19  4.7  39.7    8
c [transred-3] limit 100000 with penalty 0 = 0 + 0
c t    2.9    9569    44660       377     276   1794   599  19  4.7  39.7    8
c [block-2] scheduling all variables this time
c [block-2] scheduled 9569 variables 100%
c [block-2] limit of 10000000 steps penalty 0 = 0 + 0
c [block-2] fully completed blocked clause elimination
c [block-2] transition to [ all 0 rem 0 ] state
c [block-2] eliminated 0 blocked clauses
c [cce-2] 7946 variables 83% will be scheduled this time
c [cce-2] limit of 10000000 steps penalty 0 = 0 + 0
c [cce-2] 5695 variables 60% remain to be tried next time
c [cce-2] transition to [ all 0 rem 1 ] state
c [cce-2] eliminated 724 covered clauses
c 
c  seconds         irredundant          redundant clauses agility   height
c          variables clauses conflicts large binary ternary    glue         MB
c 
c E    3.2    9561    43936       377     276   2458   601  19  4.7  39.7    7
c [elim-2] 2669 variables 28% will be scheduled this time
c [elim-2] scheduled 2669 variables 28%
c [elim-2] limit of 5000000 steps penalty 0 = 0 + 0
c [elim-2] fully completed variable elimination
c [elim-2] transition to [ all 0 rem 0 ] state
c [elim-2] eliminated 27 = 0% variables out of 9561
c e    3.3    9534    43804       377     276   2408   597  19  4.7  39.7    7
c [phase-2] phase bias: 70 positive 78%, 20 negative 22%
c [simplification-2] removed 150 variables 1%
c [simplification-2] no reduction of limit increments
c [simplification-2] arithmetic increase of conflict limit interval by 10000
c [simplification-2] new irredundant limit 614932
c [simplification-2] new conflict limit 10654
c [simplification-2] simplification penalty reduced to 2
c R    3.4    9534    43804       416     311   2411   598  19  4.6  38.6    8
c R    3.4    9534    43804      1003     829   2432   637  12 11.1  37.1    8
c -    3.4    9534    43804      1195     514   2438   642  11 12.8  36.9    8
c R    3.5    9534    43804      2313    1569   2467   668  10 11.1  38.5    9
c -    3.7    9534    43804      3884    1500   2547   722   9  9.6  36.7    8
c R    3.8    9534    43804      5252    2839   2565   733  12 10.5  35.2    9
c -    4.0    9534    43804      7556    2527   2630   778  10  9.9  32.0    8
c [simplification-3] limit hit at 10656 conflicts
c [simplification-3] simplification penalty of 2
c [ternres-3] limit 4000000 with penalty 0 = 0 + 0
c [ternres-3] all 9534 free variables schedulable
c [ternres-3] 87 ternary resolvents (1 bin, 86 trn)
c [ternres-3] fully completed ternary resolution
c T    4.3    9534    43804     10656    5552   2670   893  10  9.7  29.6    9
c [gauss-3] limit 500000 penalty 2 = 2 + 0
c [gauss-3] extracted 639 xors of average arity 2.6
c [gauss-3] connected 1678 occurrences of 690 variables (average 2.4)
c [gauss-3] limit 500000 penalty 2 = 2 + 0
c [gauss-3] fully completed
c [gauss-3] exported 0 unary, 0 binary and 0 ternary equations
c G    4.4    9534    43804     10656    5552   2670   893  10  9.7  29.6    8
c d    4.4    9456    43655     10656    5552   2662   892  10  9.7  29.6    8
c [basicprobe-3] limit 1000000 penalty 0 = 0 + 0
c [basicprobe-3-0] 145 probes remain 2% after last round
c [basicprobe-3-0] 10 units = 10 failed (100%) + 0 lifted (0%)
c [basicprobe-3-0] removed 10 variables, found 336 hbrs
c p    4.5    9446    43655     10656    5552   2998   871  10  9.7  29.6    9
c [cgrclsr-3] limit 200000 penalty 0 = 0 + 0
c [cgrclsr-3] all 9446 free variables schedulable
c [cgrclsr-3] fully completed congruence closure
c [cgrclsr-3] removed 3 variables
c C    4.5    9443    43541     10656    5552   2999   870  10  9.7  29.6    8
c [lift-3] limit 500000 with penalty 0 = 0 + 0
c [lift-3] using 9244 probes 98%
c [lift-3] 9118 variables remain 97% (325 retained)
c [cliff-3] limit of 10000000 steps penalty 0 = 0 + 0
c [cliff-3] failed 1, lifted 0
c K    5.0    9442    43541     10656    5552   3637   852  10  9.7  29.6    9
c [unhide-3] limit 1000000 with penalty 0 = 0 + 0
c [unhide-3-13] 0 units, 0 failed, 426 tauts, 0 hbrs, 19531 literals
c u    5.2    9442    43388     10656    5527   3449   773  10  9.7  29.6    9
c [transred-5] limit 194673 with penalty 0 = 0 + 0
c t    5.2    9442    43379     10656    5527   3440   773  10  9.7  29.6    9
c [block-3] scheduling all variables this time
c [block-3] scheduled 9442 variables 100%
c [block-3] limit of 5000000 steps penalty 1 = 1 + 0
c [block-3] fully completed blocked clause elimination
c [block-3] transition to [ all 0 rem 0 ] state
c [block-3] eliminated 0 blocked clauses
c [cce-3] scheduling all variables this time
c [cce-3] limit of 10000000 steps penalty 0 = 0 + 0
c [cce-3] 5194 variables 55% remain to be tried next time
c [cce-3] transition to [ all 1 rem 1 ] state
c [cce-3] eliminated 159 covered clauses
c E    5.5    9442    43220     10656    5527   3603   773  10  9.7  29.6    8
c [elim-3] scheduling all variables this time
c [elim-3] scheduled 9442 variables 100%
c [elim-3] limit of 5000000 steps penalty 0 = 0 + 0
c [elim-3] incomplete variable elimination 353 not tried 4%
c [elim-3] transition to [ all 1 rem 1 ] state
c [elim-3] eliminated 753 = 8% variables out of 9442
c e    6.3    8689    42861     10656    3482   2853   747  10  9.7  29.6    7
c [phase-3] phase bias: 44 positive 79%, 12 negative 21%
c [simplification-3] removed 845 variables 8%
c [simplification-3] limit increments divided by 5
c [simplification-3] arithmetic increase of conflict limit interval by 2000
c [simplification-3] new irredundant limit 614932
c [simplification-3] new conflict limit 22933
c [simplification-3] simplification penalty reduced to 1
c R    6.4    8689    42861     11803    4627   2853   748   9  9.9  29.2    9
c -    6.7    8689    42861     14222    3504   2874   766   9  9.5  27.4    9
c -    7.3    8689    42861     19808    4530   2900   800   9  8.9  24.5    9
c [simplification-4] limit hit at 22933 conflicts
c [simplification-4] simplification penalty of 1
c [ternres-4] limit 4000000 with penalty 0 = 0 + 0
c [ternres-4] all 8689 free variables schedulable
c [ternres-4] 63 ternary resolvents (0 bin, 63 trn)
c [ternres-4] fully completed ternary resolution
c T    7.5    8689    42861     22933    7623   2915   878  11  8.8  23.4    9
c [gauss-4] limit 250000 penalty 3 = 3 + 0
c [gauss-4] extracted 177 xors of average arity 3.0
c [gauss-4] connected 531 occurrences of 378 variables (average 1.4)
c [gauss-4] limit 250000 penalty 3 = 3 + 0
c [gauss-4] fully completed
c [gauss-4] exported 0 unary, 0 binary and 0 ternary equations
c 
c  seconds         irredundant          redundant clauses agility   height
c          variables clauses conflicts large binary ternary    glue         MB
c 
c G    7.6    8689    42861     22933    7623   2915   878  11  8.8  23.4    8
c [basicprobe-4] limit 1000000 penalty 0 = 0 + 0
c [basicprobe-4-0] 172 sched 2%, 1 failed, 0 lifted, 35 hbrs
c [basicprobe-4-1] 1568 probes remain 18% after last round
c [basicprobe-4-1] 1 units = 1 failed (100%) + 0 lifted (0%)
c [basicprobe-4-1] removed 1 variables, found 105 hbrs
c p    7.7    8688    42848     22933    7623   3017   877  11  8.8  23.4    9
c [cgrclsr-4] limit 200000 penalty 0 = 0 + 0
c [cgrclsr-4] all 8688 free variables schedulable
c [cgrclsr-4] fully completed congruence closure
c [lift-4] limit 250000 with penalty 1 = 1 + 0
c [lift-4] using 8384 probes 97%
c [lift-4] 8315 variables remain 96% (373 retained)
c [cliff-4] limit of 10000000 steps penalty 0 = 0 + 0
c [cliff-4] failed 0, lifted 0
c [unhide-4] limit 1000000 with penalty 0 = 0 + 0
c [unhide-4-17] 0 units, 0 failed, 458 tauts, 0 hbrs, 12357 literals
c u    8.4    8688    42520     22933    7571   3302   848  11  8.8  23.4    9
c [transred-7] limit 437416 with penalty 0 = 0 + 0
c t    8.4    8688    42514     22933    7571   3277   848  11  8.8  23.4    9
c [block-4] scheduling all variables this time
c [block-4] scheduled 8688 variables 100%
c [block-4] limit of 2500000 steps penalty 2 = 2 + 0
c [block-4] fully completed blocked clause elimination
c [block-4] transition to [ all 0 rem 0 ] state
c [block-4] eliminated 0 blocked clauses
c [cce-4] 5173 variables 60% will be scheduled this time
c [cce-4] limit of 10000000 steps penalty 0 = 0 + 0
c [cce-4] 4601 variables 53% remain to be tried next time
c [cce-4] transition to [ all 0 rem 1 ] state
c [cce-4] eliminated 466 covered clauses
c E    8.7    8688    42048     22933    7571   3744   849  11  8.8  23.4    8
c [elim-4] 353 variables 4% will be scheduled this time
c [elim-4] scheduled 353 variables 4%
c [elim-4] limit of 5000000 steps penalty 0 = 0 + 0
c [elim-4] fully completed variable elimination
c [elim-4] transition to [ all 0 rem 0 ] state
c [elim-4] eliminated 0 = 0% variables out of 8688
c e    8.7    8688    42040     22933    7571   3744   849  11  8.8  23.4    8
c [phase-4] phase bias: 14 positive 70%, 6 negative 30%
c [simplification-4] removed 1 variables 0%
c [simplification-4] no reduction of limit increments
c [simplification-4] arithmetic increase of conflict limit interval by 10000
c [simplification-4] new irredundant limit 614932
c [simplification-4] new conflict limit 45210
c [simplification-4] simplification penalty reduced to 0
c i    8.9    8687    42039     25224    9843   3748   863  10  8.7  22.8   10
c i    9.0    8612    42038     25634   10231   3752   880   9  8.6  22.6   10
c i    9.0    8285    42038     25823   10414   3756   881   9  8.6  22.6    9
c i    9.0    8273    42037     25975   10552   3760   890  10  8.5  22.5    9
c i    9.0    8188    42036     26112   10678   3765   894  10  8.5  22.5    9
c R    9.0    8161    42036     26200   10764   3765   896  10  8.5  22.5    9
c i    9.0    8160    42035     26241   10782   3773   910  10  8.5  22.5    9
c i    9.0    8145    42034     26309   10835   3781   916  10  8.5  22.4    9
c i    9.0    8091    42033     26355   10871   3785   921  10  8.5  22.4    9
c i    9.0    7800    42032     26356   10871   3785   921  10  8.5  22.4    9
c i    9.0    7799    42031     26357   10871   3785   921  10  8.5  22.4    9
c i    9.0    7783    42030     26358   10871   3785   921  10  8.5  22.4    9
c i    9.0    7760    42029     26359   10871   3785   921  10  8.5  22.4    9
c i    9.0    7745    42028     26360   10871   3785   921  10  8.5  22.4    9
c 0    9.0    7672    42028     26360   10871   3785   921  10  8.5  22.4    9
c 
c  seconds         irredundant          redundant clauses agility   height
c          variables clauses conflicts large binary ternary    glue         MB
c 
c blkd: 4 bces, 1910 removed, 595889 resolutions, 1616750 steps
c blkd: 1910 blocking literals 1%, 0 pure
c cces: 4 cces, 2019 eliminated, 2019 ate 100%, 0 abce 0%
c cces: 22206 probed, 10 lifted, 45 failed
c clff: 4 cliffs, 91 lifted, 106 failed
c clff: 62011 decisions, 40017072 steps
c clls: 1 sat, 0 simp, 0 freeze, 0 melt
c clls: 626695 add, 0 assume,, 0 deref, 0 failed
c clls: 0 cassume, 0 mosat
c coll: 31 gcs, 0 rescored clauses
c cgrs: 4 count, 800000 esteps, 276534 csteps
c cgrs: 183 eqs, 0 units
c cgrs: 0 matched (0 ands 0%, 0 xors 0%, 0 ites 0%)
c cgrs: 0 simplified (0 ands 0%, 0 xors 0%, 0 ites 0%)
c cgrs: 5430 extracted (4763 ands 88%, 667 xors 12%, 0 ites 0%)
c dcps: 5 decompositions, 19312 equivalent 28%
c decs: 64102 decision, 61 random 0.095%
c decs: 15808 flipped 24.661% (in 139 phases)
c elms: 4 elims, 4809 eliminated 7%
c elms: 4809 small 100%, 0 large 0%
c elms: 18674 tried small, 4809 succeeded 26%, 13865 failed 74%
c elms: 258 subsumed, 21 strengthened, 0 blocked
c elms: 425677 copies, 360615 resolutions, 619599 ipos
c elms: 19662 subchks, 4433 strchks
c frcs: 0 computed, 25.8 - 74.2 average min-cut range
c gaus: 4 extractions, 127949 extracted, 2.0 size, 4 max
c gaus: exported 0 units, 0 binary and 0 ternary equations
c gaus: 0 gc, 5465010 steps, 2732505 extr 50%, 2254914 elim 41%
c glue: 8.5 avg, 3.1 scaled avg
c glue: 0 maxredglue=15 (0%)
c lift: 4 phases, 2545 probed (854 level1 34%, 1691 level2 66%)
c lift: 10 units, 2 equivalences, 22 implications
c hbrs: 13170 hbrs = 13170 trn 100% + 0 lrg 0%, 85 sub 1%
c lrnd: 26303 clauses, 12163 uips 46%, 25.6 length, 8.5 glue
c ints: 1038 luby (156404 steps), 0 inout (0 steps)
c mins: 673782 learned lits, 49% minimized
c move: moved 3929, 2153 binary 55%, 1776 ternary 45%
c otfs: str 406 dyn (364 red, 42 irr) 57 drv 14%, 349 rst 86%
c otfs: sub 6 dyn (6 red, 0 irr)
c phas: 4 computed, 1835 set, 402 pos (22%), 1433 neg (78%)
c prbs: 4 basic, 5307 probed, 140 failed, 0 lifted
c prps: 19679147 props, 109 props/dec
c prps: 35% srch, 65% simp, 0% lkhd
c psns: 1720691 searches, 326850 hits, 19% hit rate
c queu: 316039 new, 139314 del, 120 maximum priority
c queu: 176680 merged, 172614 collected, 20 gcs
c queu: 26709 deprioritized, 54.4 lines on average
c reds: 5 count, 0 reset, 5 acts 100%, 0 exp 0%
c reds: 5 arithmetic 100%, 5 double 100%
c rmbd: 57 removed, 7 red 12%
c rsts: 1011 restarts 97%, 26 skipped 3%
c rsts: 208 kept 20.6% average 30.7%
c simp: 4 count (0 ilim 0%, 0 plim 0%, 4 clim 100%)
c trnr: 4 count, 6 bin, 541 trn, 2636010 steps
c tops: 36732 fixed 54%, 13 iterations
c trds: 8 transitive reductions, 80 removed, 0 failed
c trds: 3624 nodes, 5330 edges, 832886 steps
c unhd: 4 count, 17 rounds, 4922300 steps
c unhd: 5632 non-trivial sccs of average size 2.0
c unhd: 0 units, 0 bin, 0 trn, 0 lrg
c unhd: 4 failed, 1 stamp, 0 lits, 1 bin, 0 trn, 0 lrg
c unhd: 8946 tauts, 60 bin 1%, 358 trn 4%, 79 lrg 1%
c unhd: 8946 tauts, 8449 stamp 94%, 3134 red 35%
c unhd: 0 hbrs, 0 trn 0%, 0 lrg 0%, 0 red 0%
c unhd: 32656 strd, 0 bin 0%, 10 trn 0%, 32646 lrg 100%, 32641 red 100%
c vars: 7672 remaining 11% and 60853 removed 89% out of 68525
c vars: 36732 fixed 54%, 4809 eliminated 7%, 19312 equivalent 28%
c vsts: 108964681 visits, 47% srch, 53% simp, 0% lkhd
c vsts: 7.3 search visits per propagation 1924.3 per conflict
c wchs: 26836343 pushed, 1878379 enlarged, 48 defrags
c 
c scaledglue  added       reduced       forcing      resolved     conflicts
c 
c all     25540 100     12493 100    395609 100    155136 100     11903 100
c 
c  0          0   0         0   0         0   0         0   0         0   0 
c  1         76   0        28   0      8324   2       935   1        61   1 
c  2       5762  23      2102  17    246837  62<    73292  47      5371  45 
c  3      12797  50<     6142  49<   116099  29     60964  39<     4960  42<
c  4       4388  17      2392  19     17024   4     13172   8      1004   8 
c  5       1640   6      1123   9      5288   1      4660   3       330   3 
c  6        525   2       404   3      1212   0      1244   1       108   1 
c  7        258   1       211   2       549   0       623   0        51   0 
c  8         90   0        87   1       272   0       238   0        17   0 
c  9          4   0         4   0         4   0         8   0         1   0 
c 10          0   0         0   0         0   0         0   0         0   0 
c 11          0   0         0   0         0   0         0   0         0   0 
c 12          0   0         0   0         0   0         0   0         0   0 
c 13          0   0         0   0         0   0         0   0         0   0 
c 14          0   0         0   0         0   0         0   0         0   0 
c 15          0   0         0   0         0   0         0   0         0   0 
c 
c avg             3.2           3.4           2.4           2.7           2.7
c std             1.0           1.1           0.7           0.9           0.9
c 
c 64102 decisions, 26360 conflicts, 2918.3 conflicts/sec
c 19679147 propagations, 2.2 megaprops/sec
c 9.0 seconds, 18.2 MB
c 
c    0.568   6% analysis
c    0.112   1% block
c    0.184   2% bump
c    0.000   0% card
c    1.156  13% cce
c    1.636  18% cliff
c    0.004   0% cutwidth
c    0.028   0% decide
c    0.000   0% force
c    0.320   4% gc
c    0.144   2% cgrclsr
c    0.128   1% decomp
c    0.064   1% defrag
c    1.864  21% elim
c    0.344   4% gauss
c    0.164   2% lift
c    0.104   1% mincls
c    0.020   0% phase
c    0.232   3% probe
c    0.012   0% reduce
c    0.044   0% restart
c    0.036   0% ternres
c    0.048   1% transred
c    0.564   6% unhide
c ==================================
c    0.004   0% preprocessing     0%
c    6.456  71% inprocessing    100%
c ==================================
c    6.460  72% simplifying
c    0.000   0% lookahead
c    2.568  28% search
c ==================================
c    9.033 100% all
c
s UNSATISFIABLE
